RAW/CMTQ/fspd-mid/CMT9Q.vrp_seed-3.out
1161.244379	56.164	175.769
