RAW/CMTQ/fspd-mid/CMT9Q.vrp_seed-3.sol
Route #1: 27 138 48 112 61 7 69 23 57 6 102 46
Route #2: 47 56 146 149 4 109 142 145 144 12
Route #3: 37 137 44 107 65 93 42 92 147 17 63
Route #4: 97 86 43 99 114 113 26 60
Route #5: 87 150 19 64 88 40 94 41 141 148
Route #6: 122 125 106 73 117 89 39 54 10 5
Route #7: 76 49 104 30 105 75 74 34 9 62 38
Route #8: 11 126 16 127 53 129 29 79 21 118 130 50 78
Route #9: 108 52 15 45 91 72 33 124 123 71 90 103
Route #10: 77 32 51 22 101 3 59 20 131 83 2 100
Route #11: 119 1 120 80 70 28 31 82 140 8 81
Route #12: 143 135 111 66 136 13 67 134 55 18 110
Route #13: 116 121 115 36 85 35 84 128
Route #14: 139 133 14 58 25 95 96 24 98 132 68
Cost 1161.244379